# Solution for model GasLib-40
# Objective value = 1.0703601617715025e+01
loadshed[innode_1] 0
loadshed[innode_2] 0
loadshed[innode_3] 0
loadshed[innode_4] 0
loadshed[innode_5] 0
loadshed[innode_6] 0
loadshed[innode_7] 0
loadshed[innode_8] 0
loadshed[source_1] -3.5715157229528227e-01
loadshed[source_2] 5.0129459158870460e-02
loadshed[source_3] 3.7472774164281686e-01
loadshed[sink_1] 0
loadshed[sink_2] 0
loadshed[sink_3] 0
loadshed[sink_4] 0
loadshed[sink_5] 0
loadshed[sink_6] 0
loadshed[sink_7] 0
loadshed[sink_8] 0
loadshed[sink_9] 0
loadshed[sink_10] 0
loadshed[sink_11] 0
loadshed[sink_12] 6.5448774222970851e-01
loadshed[sink_13] 0
loadshed[sink_14] 0
loadshed[sink_15] 0
loadshed[sink_16] 0
loadshed[sink_17] 0
loadshed[sink_18] 0
loadshed[sink_19] 0
loadshed[sink_20] 0
loadshed[sink_21] 0
loadshed[sink_22] 0
loadshed[sink_23] 0
loadshed[sink_24] 0
loadshed[sink_25] 0
loadshed[sink_26] 0
loadshed[sink_27] 0
loadshed[sink_28] 0
loadshed[sink_29] 0
flow[source_1,sink_3] 2.1455246905070902e+02
flow[innode_1,sink_16] 1.6354166666666970e+01
flow[innode_6,sink_13] 1.5629701656254916e+01
flow[sink_13,sink_14] -7.2446501041175182e-01
flow[sink_14,sink_10] -1.7078631677078420e+01
flow[sink_25,sink_26] 1.7143979577414723e+02
flow[sink_26,sink_9] 1.2169963614763546e+02
flow[sink_9,sink_18] 1.0534546948096879e+02
flow[sink_26,sink_4] 3.3385992959845112e+01
flow[sink_4,sink_20] -17.1726407485192
flow[sink_18,sink_6] 8.8991302814302117e+01
flow[sink_25,innode_8] -1.8184413571737264e+02
flow[sink_6,sink_7] 3.9928802814301889e+01
flow[sink_6,sink_22] 3.2708333333333641e+01
flow[sink_7,sink_24] 3.8358898382284977e+01
flow[sink_22,sink_1] 1.6354166666666970e+01
flow[sink_24,sink_21] 2.2004731715618313e+01
flow[sink_21,sink_12] 5.6505650489516430e+00
flow[sink_7,sink_5] -1.4784262234649560e+01
flow[sink_5,sink_17] -3.1138428901316161e+01
flow[sink_17,sink_4] -3.4204467041697683e+01
flow[sink_17,sink_8] -1.3288128526285220e+01
flow[sink_3,sink_23] 16.3541666666697
flow[sink_8,sink_20] -2.9642295192951906e+01
flow[sink_25,sink_20] 6.3169102608137791e+01
flow[sink_25,sink_15] -8.4748630987834261e+01
flow[sink_15,sink_29] 0
flow[sink_29,sink_28] 1.6354166666667879e+01
flow[sink_29,sink_2] 1.1745696432116760e+02
flow[sink_2,sink_15] 1.0110279765450093e+02
flow[sink_29,innode_7] -1.5016529765450218e+02
flow[innode_4,sink_19] 8.2495298343745816e+01
flow[sink_19,innode_3] 6.6141131677078874e+01
flow[innode_4,innode_5] 1.6354166666679703e+01
flow[sink_27,innode_5] -1.6354166666679703e+01
flow[sink_27,sink_19] 0
flow[sink_10,sink_11] 3.2708333333333641e+01
flow[sink_10,innode_2] 0
flow[sink_10,innode_3] -6.6141131677078874e+01
flow[innode_6,sink_25] -1.5629701656254916e+01
flow[sink_11,innode_1] 1.6354166666666970e+01
flow[sink_19,innode_2] 0
flow[source_3,innode_4] 9.8849465010425519e+01
flow[source_2,innode_7] 1.5016529765450218e+02
flow[sink_3,innode_8] 1.8184413571737264e+02
pressure[innode_1] 7.3851633850700267e+01
pressure[innode_2] 7.7671155264876646e+01
pressure[innode_3] 7.7524693218448434e+01
pressure[innode_4] 81.01325
pressure[innode_5] 8.1002000741808772e+01
pressure[innode_6] 7.3280407302288580e+01
pressure[innode_7] 81.01325
pressure[innode_8] 8.0296083057977455e+01
pressure[source_1] 81.01325
pressure[source_2] 81.01325
pressure[source_3] 81.01325
pressure[sink_1] 4.5632842418595772e+01
pressure[sink_2] 74.0215990951403
pressure[sink_3] 8.0296083057977455e+01
pressure[sink_4] 5.6961221615202284e+01
pressure[sink_5] 53.334451792493
pressure[sink_6] 4.7733920028983142e+01
pressure[sink_7] 4.7185792742203695e+01
pressure[sink_8] 5.6155435281618061e+01
pressure[sink_9] 5.3921965845373528e+01
pressure[sink_10] 7.4003335158303813e+01
pressure[sink_11] 7.3851633850700267e+01
pressure[sink_12] 1.0132499999999998e+00
pressure[sink_13] 7.3194243369023440e+01
pressure[sink_14] 7.3195539860870355e+01
pressure[sink_15] 7.3691520743496056e+01
pressure[sink_16] 7.2829984015882587e+01
pressure[sink_17] 5.5654039670612306e+01
pressure[sink_18] 5.0110252776053912e+01
pressure[sink_19] 7.7671155264876646e+01
pressure[sink_20] 5.8221086388935213e+01
pressure[sink_21] 3.0240303010467451e+00
pressure[sink_22] 4.6696611560950785e+01
pressure[sink_23] 8.0131365046317669e+01
pressure[sink_24] 3.2677122599631554e+00
pressure[sink_25] 7.3280407302288580e+01
pressure[sink_26] 6.1206003166924106e+01
pressure[sink_27] 8.0866291377726043e+01
pressure[sink_28] 7.6701634286002587e+01
pressure[sink_29] 7.6996916559619763e+01
interdiction[source_1,sink_3] 0
interdiction[innode_1,sink_16] 0
interdiction[innode_6,sink_13] 0
interdiction[sink_13,sink_14] 0
interdiction[sink_14,sink_10] 0
interdiction[sink_25,sink_26] 0
interdiction[sink_26,sink_9] 0
interdiction[sink_9,sink_18] 0
interdiction[sink_26,sink_4] 0
interdiction[sink_4,sink_20] 0
interdiction[sink_18,sink_6] 0
interdiction[sink_25,innode_8] 0
interdiction[sink_6,sink_7] 0
interdiction[sink_6,sink_22] 0
interdiction[sink_7,sink_24] 0
interdiction[sink_22,sink_1] 0
interdiction[sink_24,sink_21] 0
interdiction[sink_21,sink_12] 0
interdiction[sink_7,sink_5] 0
interdiction[sink_5,sink_17] 0
interdiction[sink_17,sink_4] 0
interdiction[sink_17,sink_8] 0
interdiction[sink_3,sink_23] 0
interdiction[sink_8,sink_20] 0
interdiction[sink_25,sink_20] 0
interdiction[sink_25,sink_15] 0
interdiction[sink_15,sink_29] 1
interdiction[sink_29,sink_28] 0
interdiction[sink_29,sink_2] 0
interdiction[sink_2,sink_15] 0
interdiction[sink_29,innode_7] 0
interdiction[innode_4,sink_19] 0
interdiction[sink_19,innode_3] 0
interdiction[innode_4,innode_5] 0
interdiction[sink_27,innode_5] 0
interdiction[sink_27,sink_19] 1
interdiction[sink_10,sink_11] 0
interdiction[sink_10,innode_2] 1
interdiction[sink_10,innode_3] 0
interdiction[innode_6,sink_25] 0
interdiction[sink_11,innode_1] 0
interdiction[sink_19,innode_2] 0
interdiction[source_3,innode_4] 0
interdiction[source_2,innode_7] 0
interdiction[sink_3,innode_8] 0
WCcheckFlow[source_1,sink_3] 39
WCcheckFlow[innode_1,sink_16] 1
WCcheckFlow[innode_6,sink_13] 13
WCcheckFlow[sink_13,sink_14] 12
WCcheckFlow[sink_14,sink_10] 11
WCcheckFlow[sink_25,sink_26] 15
WCcheckFlow[sink_26,sink_9] 12
WCcheckFlow[sink_9,sink_18] 11
WCcheckFlow[sink_26,sink_4] 2
WCcheckFlow[sink_4,sink_20] 1
WCcheckFlow[sink_18,sink_6] 10
WCcheckFlow[sink_25,innode_8] -36
WCcheckFlow[sink_6,sink_7] 7
WCcheckFlow[sink_6,sink_22] 2
WCcheckFlow[sink_7,sink_24] 3
WCcheckFlow[sink_22,sink_1] 1
WCcheckFlow[sink_24,sink_21] 2
WCcheckFlow[sink_21,sink_12] 1
WCcheckFlow[sink_7,sink_5] 3
WCcheckFlow[sink_5,sink_17] 2
WCcheckFlow[sink_17,sink_4] 0
WCcheckFlow[sink_17,sink_8] 1
WCcheckFlow[sink_3,sink_23] 1
WCcheckFlow[sink_8,sink_20] 0
WCcheckFlow[sink_25,sink_20] 0
WCcheckFlow[sink_25,sink_15] 6
WCcheckFlow[sink_15,sink_29] 0
WCcheckFlow[sink_29,sink_28] 1
WCcheckFlow[sink_29,sink_2] -4
WCcheckFlow[sink_2,sink_15] -5
WCcheckFlow[sink_29,innode_7] 2
WCcheckFlow[innode_4,sink_19] -4
WCcheckFlow[sink_19,innode_3] -6
WCcheckFlow[innode_4,innode_5] 2
WCcheckFlow[sink_27,innode_5] -1
WCcheckFlow[sink_27,sink_19] 0
WCcheckFlow[sink_10,sink_11] 3
WCcheckFlow[sink_10,innode_2] 0
WCcheckFlow[sink_10,innode_3] 7
WCcheckFlow[innode_6,sink_25] -14
WCcheckFlow[sink_11,innode_1] 2
WCcheckFlow[sink_19,innode_2] 1
WCcheckFlow[source_3,innode_4] -1
WCcheckFlow[source_2,innode_7] -1
WCcheckFlow[sink_3,innode_8] 37
